data;

set V := s t u w;

set K := t u w;

param source := s;

param: E: u := 
	s t 4
	s u 6
	s w 6
	t u 3
	u t 3
	u w 4
	w t 3
	w u 2
;

param: f := 
	s t 1
	s u 2
	s w 3
	t u 3
	u t 1
	u w 2
	w t 1
	w u 1
;

param: b := 
	t 5
	u 3
	w 1
;
